#######################################
### Exact MIP solver for the HHCRSP ###
#######################################
-- Instance file: new-instances/HHCRSP_400_80_41_0.4_R_C.txt
-- Max threads: 4
-- Time limit: 999999 seconds
-- Use initial solution: No
Trivial flow violations prevented generating 2753455 variables.
Version identifier: 20.1.0.0 | 2020-11-10 | 9bedb6d68
CPXPARAM_Threads                                 4
CPXPARAM_Emphasis_Memory                         1
CPXPARAM_TimeLimit                               999999
Tried aggregator 1 time.
Presolve has eliminated 81372 rows and 17841 columns...
LP Presolve eliminated 81372 rows and 17841 columns.
Reduced LP has 2891740 rows, 2743383 columns, and 81146638 nonzeros.
Presolve time = 87.18 sec. (17262.75 ticks)
Compression time = 21.22 sec. (5.47 ticks)
Compression reduced 1175.32 MB A matrix to 353.99 MB
Symmetry aggregator did 4897056 additional substitutions.
Elapsed time = 109.83 sec. (18034.21 ticks, 1 iterations)

Iteration log . . .
Iteration:     1   Dual objective     =             0.000000
Iteration:  1784   Dual objective     =           436.666667

Dual crossover.
  Dual:  Fixing 2795 variables.
     2794 DMoves:  Infeasibility  3.40510953e-12  Objective  4.37666667e+02
        0 DMoves:  Infeasibility  1.86767268e-12  Objective  4.37666667e+02
  Dual:  Pushed 77, exchanged 2718.
  Primal:  Fixing 2266 variables.
     2265 PMoves:  Infeasibility  2.02615702e-15  Objective  4.37666667e+02
        0 PMoves:  Infeasibility  2.46330734e-15  Objective  4.37666667e+02
  Primal:  Pushed 2056, exchanged 210.

Solution status from MIP model:
-- Processing time: 147.382 sec.
-- Memory used: 1863.14 MB
-- Best bound: inf
-- Obj value: 437.667
-- Gap: inf%
-- Total distance: 1313
-- Total tardiness: 0
-- Largest tardiness: 0
